language ESSENCE' 1.0

letting n_courses be 6
letting prereq_RelationAsMatrix be
        [[false, true, true, false, false, false; int(1..6)],
         [false, false, true, false, false, false; int(1..6)],
         [false, false, false, true, false, false; int(1..6)],
         [false, false, false, false, true, false; int(1..6)],
         [false, false, false, false, false, true; int(1..6)],
         [true, false, false, false, false, false; int(1..6)]; int(1..6)]
letting fin1 be 7
